Route #1: 1 26 47 23 25 31 10 50 2 22 1
Route #2: 1 35 39 3 11 18 41 37 6 17 44 1
Route #3: 1 36 4 34 20 49 15 5 1
Route #4: 1 7 27 29 8 12 43 1
Route #5: 1 28 32 33 38 42 13 9 1
Route #6: 1 45 21 24 16 51 48 46 1
Route #7: 1 19 30 40 14 1
cost 1099
